c Qdimacs file from skolem function generator
p cnf 684 1851
a 438 439 440 441 442 443 444 445 446 447 448 449 450 451 452 453 454 455 456 457 458 459 460 461 462 463 464 465 466 467 468 469 470 471 472 473 474 475 476 477 478 479 480 481 482 483 484 485 486 487 488 489 490 491 492 493 494 495 496 497 498 499 500 501 502 503 504 505 506 507 508 509 510 511 512 513 514 515 516 517 518 519 520 521 522 523 524 525 526 527 528 529 530 531 532 533 534 535 536 537 538 539 540 541 542 543 544 545 546 547 548 549 550 551 552 553 554 555 556 557 558 559 560 561 562 563 564 565 566 567 568 569 570 571 572 573 574 575 576 577 578 579 580 581 582 583 584 585 586 587 588 589 590 591 592 593 594 595 596 597 598 599 600 601 602 603 604 605 606 607 608 609 610 611 612 613 614 615 616 617 618 619 620 621 622 623 624 625 626 627 628 629 630 631 632 633 634 635 636 637 638 639 640 641 642 643 644 645 646 647 648 649 650 651 652 653 654 655 656 657 658 659 660 661 662 663 664 665 666 667 668 669 670 671 672 673 674 675 676 677 678 679 680 681 682 683 0
e 416 417 418 419 420 421 422 423 424 425 426 427 428 429 430 431 432 433 434 435 436 437 1 2 3 4 5 6 7 8 9 10 11 12 13 14 15 16 17 18 19 20 21 22 23 24 25 26 27 28 29 30 31 32 33 34 35 36 37 38 39 40 41 42 43 44 45 46 47 48 49 50 51 52 53 54 55 56 57 58 59 60 61 62 63 64 65 66 67 68 69 70 71 72 73 74 75 76 77 78 79 80 81 82 83 84 85 86 87 88 89 90 91 92 93 94 95 96 97 98 99 100 101 102 103 104 105 106 107 108 109 110 111 112 113 114 115 116 117 118 119 120 121 122 123 124 125 126 127 128 129 130 131 132 133 134 135 136 137 138 139 140 141 142 143 144 145 146 147 148 149 150 151 152 153 154 155 156 157 158 159 160 161 162 163 164 165 166 167 168 169 170 171 172 173 174 175 176 177 178 179 180 181 182 183 184 185 186 187 188 189 190 191 192 193 194 195 196 197 198 199 200 201 202 203 204 205 206 207 208 209 210 211 212 213 214 215 216 217 218 219 220 221 222 223 224 225 226 227 228 229 230 231 232 233 234 235 236 237 238 239 240 241 242 243 244 245 246 247 248 249 250 251 252 253 254 255 256 257 258 259 260 261 262 263 264 265 266 267 268 269 270 271 272 273 274 275 276 277 278 279 280 281 282 283 284 285 286 287 288 289 290 291 292 293 294 295 296 297 298 299 300 301 302 303 304 305 306 307 308 309 310 311 312 313 314 315 316 317 318 319 320 321 322 323 324 325 326 327 328 329 330 331 332 333 334 335 336 337 338 339 340 341 342 343 344 345 346 347 348 349 350 351 352 353 354 355 356 357 358 359 360 361 362 363 364 365 366 367 368 369 370 371 372 373 374 375 376 377 378 379 380 381 382 383 384 385 386 387 388 389 390 391 392 393 394 395 396 397 398 399 400 401 402 403 404 405 406 407 408 409 410 411 412 413 414 415 684 0
4 -5 -271 -292 -405 0
-4 405 0
-4 5 0
-4 292 0
-4 271 0
5 -6 -232 -258 -266 0
-5 266 0
-5 6 0
-5 258 0
-5 232 0
6 -7 133 186 -193 0
-6 193 0
-6 -186 0
-6 7 0
-6 -133 0
7 -464 485 8 -128 0
7 464 485 -8 -128 0
7 464 -485 -8 128 0
7 -464 -485 8 128 0
-7 -464 -8 0
-7 464 8 0
-7 485 128 0
-7 -485 -128 0
8 9 -21 0
8 9 123 126 0
-8 -9 0
-8 21 -126 0
-8 21 -123 0
9 10 -11 0
-9 -10 0
-9 11 0
10 416 -417 0
-10 -416 0
-10 417 0
11 -550 -17 0
11 12 -17 0
-11 17 0
-11 550 -12 0
12 -13 -14 0
12 513 -13 -16 0
-12 13 0
-12 -513 14 0
-12 14 16 0
13 470 539 0
-13 -470 0
-13 -539 0
14 504 514 558 -15 0
-14 15 0
-14 -558 0
-14 -504 0
-14 -514 0
15 449 -456 461 492 0
-15 456 0
-15 -492 0
-15 -449 0
-15 -461 0
16 456 462 0
-16 -456 0
-16 -462 0
17 -12 18 0
17 18 -19 0
-17 -18 0
-17 12 19 0
18 -491 -550 0
-18 491 0
-18 550 0
19 -475 13 -20 0
19 -464 -13 -20 0
-19 20 0
-19 475 13 0
-19 464 -13 0
20 475 528 0
20 464 540 0
20 528 540 0
20 464 475 0
-20 -464 -528 0
-20 -475 -540 0
21 -22 -88 0
-21 22 0
-21 88 0
22 -23 70 85 0
22 -33 70 85 0
-22 -85 0
-22 -70 0
-22 23 33 0
23 10 24 26 0
-23 -10 0
-23 -26 0
-23 -24 0
24 -418 -25 0
-24 418 0
-24 25 0
25 416 417 0
-25 -416 0
-25 -417 0
26 -27 -31 0
-26 27 0
-26 31 0
27 -29 0
27 -542 28 0
-27 -28 29 0
-27 542 29 0
28 451 470 522 0
-28 -451 0
-28 -522 0
-28 -470 0
29 -479 -28 30 0
29 -489 -28 -30 0
-29 28 0
-29 489 -30 0
-29 479 30 0
30 468 518 0
-30 -468 0
-30 -518 0
31 419 -420 -32 0
-31 32 0
-31 420 0
-31 -419 0
32 418 -25 0
-32 -418 0
-32 25 0
33 -34 58 66 0
33 -35 58 66 0
-33 -66 0
-33 -58 0
-33 34 35 0
34 416 24 26 0
-34 -416 0
-34 -26 0
-34 -24 0
35 -25 36 52 0
35 36 52 56 0
-35 -52 0
-35 -36 0
-35 25 -56 0
36 -37 -47 0
-36 37 0
-36 47 0
37 -24 -38 0
-37 24 0
-37 38 0
38 510 -44 0
38 443 -44 0
38 443 -510 -39 0
-38 510 44 0
-38 -443 -510 0
-38 39 44 0
39 -40 -41 0
39 544 -40 -43 0
-39 40 0
-39 -544 41 0
-39 41 43 0
40 470 527 0
-40 -470 0
-40 -527 0
41 530 541 556 -42 0
-41 42 0
-41 -556 0
-41 -530 0
-41 -541 0
42 472 487 -500 520 0
-42 -472 0
-42 -520 0
-42 500 0
-42 -487 0
43 478 500 0
-43 -478 0
-43 -500 0
44 39 -45 0
-44 -39 0
-44 45 0
45 -519 40 -46 0
45 -507 -40 -46 0
-45 46 0
-45 519 40 0
-45 507 -40 0
46 507 516 0
46 454 519 0
46 507 519 0
46 454 516 0
-46 -454 -507 0
-46 -516 -519 0
47 545 -49 0
47 488 -49 0
47 488 -545 -48 0
-47 545 49 0
-47 -488 -545 0
-47 48 49 0
48 473 503 534 -40 0
-48 40 0
-48 -534 0
-48 -473 0
-48 -503 0
49 48 -50 0
-49 -48 0
-49 50 0
50 -533 40 -51 0
50 -548 -40 -51 0
-50 51 0
-50 533 40 0
-50 548 -40 0
51 496 533 0
51 483 548 0
51 533 548 0
51 483 496 0
-51 -483 -533 0
-51 -496 -548 0
52 -37 -53 0
-52 37 0
-52 53 0
53 545 -54 0
53 488 -54 0
-53 54 0
-53 -488 -545 0
54 -488 -48 0
54 48 -55 0
-54 488 -48 0
-54 48 55 0
55 -483 40 -51 0
55 -496 -40 -51 0
-55 51 0
-55 483 40 0
-55 496 -40 0
56 -423 424 57 0
56 423 424 -57 0
-56 -424 0
-56 -423 -57 0
-56 423 57 0
57 -421 -422 0
-57 421 0
-57 422 0
58 -59 -60 0
-58 59 0
-58 60 0
59 -10 -11 0
-59 10 0
-59 11 0
60 -521 -62 0
60 61 -62 0
-60 62 0
-60 521 -61 0
61 486 538 553 -13 0
-61 13 0
-61 -553 0
-61 -486 0
-61 -538 0
62 -61 63 0
62 63 -64 0
-62 -63 0
-62 61 64 0
63 -458 -521 0
-63 458 0
-63 521 0
64 -515 13 -65 0
64 -526 -13 -65 0
-64 65 0
-64 515 13 0
-64 526 -13 0
65 463 515 0
65 448 526 0
65 515 526 0
65 448 463 0
-65 -448 -515 0
-65 -463 -526 0
66 -59 -67 0
-66 59 0
-66 67 0
67 521 -68 0
67 458 -68 0
67 -458 521 -61 0
-67 -458 -521 0
-67 458 68 0
-67 61 68 0
68 61 -69 0
-68 -61 0
-68 69 0
69 -448 13 -65 0
69 -463 -13 -65 0
-69 65 0
-69 448 13 0
-69 463 -13 0
70 -71 -80 0
-70 71 0
-70 80 0
71 -416 -72 0
-71 416 0
-71 72 0
72 482 73 -78 0
72 -465 482 -73 0
72 465 73 -78 0
-72 73 78 0
-72 465 -73 0
-72 -465 -482 0
73 -74 -75 0
73 554 -74 -77 0
-73 74 0
-73 -554 75 0
-73 75 77 0
74 439 470 0
-74 -439 0
-74 -470 0
75 517 532 -546 -76 0
-75 -517 0
-75 76 0
-75 546 0
-75 -532 0
76 452 466 481 509 0
-76 -509 0
-76 -481 0
-76 -452 0
-76 -466 0
77 501 546 0
-77 -501 0
-77 -546 0
78 -535 74 -79 0
78 -551 -74 -79 0
-78 79 0
-78 535 74 0
-78 551 -74 0
79 485 535 0
79 474 551 0
79 535 551 0
79 474 485 0
-79 -474 -535 0
-79 -485 -551 0
80 498 -82 0
80 445 -82 0
80 -445 498 -81 0
-80 -445 -498 0
-80 445 82 0
-80 81 82 0
81 459 512 523 -74 0
-81 74 0
-81 -523 0
-81 -459 0
-81 -512 0
82 81 -83 0
-82 -81 0
-82 83 0
83 -450 74 -84 0
83 -438 -74 -84 0
-83 84 0
-83 450 74 0
-83 438 -74 0
84 493 505 0
84 438 450 0
84 450 505 0
84 438 493 0
-84 -450 -493 0
-84 -438 -505 0
85 -71 -86 0
-85 71 0
-85 86 0
86 445 -498 -81 0
86 498 81 -87 0
86 445 -498 -87 0
-86 81 87 0
-86 498 -81 0
-86 -445 -498 0
87 -493 74 -84 0
87 -505 -74 -84 0
-87 84 0
-87 493 74 0
-87 505 -74 0
88 89 -114 0
-88 -89 0
-88 114 0
89 -23 107 108 0
89 -90 107 108 0
-89 -108 0
-89 -107 0
-89 23 90 0
90 59 91 101 0
90 -67 91 101 0
-90 -101 0
-90 -91 0
-90 -59 67 0
91 34 -92 0
91 34 98 0
91 34 -97 0
-91 -34 0
-91 92 97 -98 0
92 425 -93 0
-92 -425 0
-92 93 0
93 -94 95 0
-93 94 0
-93 -95 0
94 -24 38 0
-94 24 0
-94 -38 0
95 510 39 -96 0
95 -443 510 -39 0
95 443 39 -96 0
-95 39 96 0
-95 443 -39 0
-95 -443 -510 0
96 -516 40 -46 0
96 -454 -40 -46 0
-96 46 0
-96 516 40 0
-96 454 -40 0
97 -37 47 53 0
-97 37 0
-97 -53 0
-97 -47 0
98 52 99 0
-98 -52 0
-98 -99 0
99 25 -100 0
99 -418 -26 -100 0
-99 100 0
-99 -25 26 0
-99 418 -25 0
100 421 424 0
-100 -421 0
-100 -424 0
101 426 -102 0
-101 -426 0
-101 102 0
102 -103 104 0
-102 103 0
-102 -104 0
103 -10 11 0
-103 10 0
-103 -11 0
104 550 -105 0
104 491 -105 0
104 -491 550 -12 0
-104 -491 -550 0
-104 491 105 0
-104 12 105 0
105 12 -106 0
-105 -12 0
-105 106 0
106 -540 13 -20 0
106 -528 -13 -20 0
-106 20 0
-106 540 13 0
-106 528 -13 0
107 -71 80 0
-107 71 0
-107 -80 0
108 427 -109 0
-108 -427 0
-108 109 0
109 -110 111 0
-109 110 0
-109 -111 0
110 -416 72 0
-110 416 0
-110 -72 0
111 482 -112 0
111 465 -112 0
111 465 -482 -73 0
-111 482 112 0
-111 -465 -482 0
-111 73 112 0
112 73 -113 0
-112 -73 0
-112 113 0
113 -474 74 -79 0
113 -485 -74 -79 0
-113 79 0
-113 474 74 0
-113 485 -74 0
114 107 115 -121 0
114 -86 115 -121 0
-114 121 0
-114 -115 0
-114 86 -107 0
115 23 120 0
115 23 34 116 0
-115 -23 0
-115 -34 -120 0
-115 -116 -120 0
116 425 36 -117 0
116 36 93 -117 0
-116 117 0
-116 -36 0
-116 -425 -93 0
117 97 -118 0
-117 -97 0
-117 118 0
118 25 119 0
118 -25 95 0
118 418 -25 0
-118 25 -119 0
-118 -418 -25 -95 0
119 421 -422 424 0
119 -421 422 424 0
-119 -424 0
-119 421 422 0
-119 -421 -422 0
120 426 59 0
120 -60 102 0
120 59 102 0
120 426 -60 0
-120 -426 -102 0
-120 -59 60 0
121 427 70 -122 0
121 70 109 -122 0
-121 122 0
-121 -70 0
-121 -427 -109 0
122 -416 111 0
122 416 104 0
122 416 417 0
-122 -416 -111 0
-122 416 -417 -104 0
123 -10 -124 0
-123 10 0
-123 124 0
124 -22 -125 0
-124 22 0
-124 125 0
125 -89 114 0
-125 89 0
-125 -114 0
126 -11 -89 127 0
-126 11 0
-126 89 0
-126 -127 0
127 22 -125 0
-127 -22 0
-127 125 0
128 416 131 0
128 -129 130 131 0
-128 -131 0
-128 -416 129 0
-128 -416 -130 0
129 21 127 0
-129 -21 0
-129 -127 0
130 -32 -111 0
-130 32 0
-130 111 0
131 436 72 124 -132 0
-131 132 0
-131 -124 0
-131 -436 0
-131 -72 0
132 416 -111 0
-132 -416 0
-132 111 0
133 -471 184 0
133 -134 -182 184 0
-133 -184 0
-133 471 182 0
-133 471 134 0
134 -135 -136 0
134 529 -135 157 0
-134 135 0
-134 -529 136 0
-134 136 -157 0
135 429 430 431 432 0
-135 -432 0
-135 -431 0
-135 -429 0
-135 -430 0
136 -137 -144 0
-136 137 0
-136 144 0
137 -138 -143 0
-137 138 0
-137 143 0
138 -494 142 0
138 139 -141 0
138 139 142 0
138 -494 -141 0
-138 494 -139 0
-138 141 -142 0
139 -10 -140 0
-139 10 0
-139 140 0
140 484 -506 0
-140 -484 0
-140 506 0
141 426 484 0
-141 -426 0
-141 -484 0
142 506 -10 0
-142 -506 0
-142 10 0
143 -469 142 0
143 139 141 0
143 139 142 0
143 -469 141 0
-143 469 -139 0
-143 -141 -142 0
144 -145 -151 0
-144 145 0
-144 151 0
145 146 149 0
-145 -146 0
-145 -149 0
146 -24 -147 0
146 460 -24 -148 0
-146 24 0
-146 -460 147 0
-146 147 148 0
147 425 441 536 0
-147 -425 0
-147 -536 0
-147 -441 0
148 441 -536 0
-148 -441 0
-148 536 0
149 536 -150 0
149 441 555 -150 0
-149 150 0
-149 -536 -555 0
-149 -441 -536 0
150 -425 -24 0
150 -441 -24 0
150 -536 -24 0
-150 24 0
-150 425 441 536 0
151 -152 -156 0
-151 152 0
-151 156 0
152 -442 155 0
152 153 -154 0
152 153 155 0
152 -442 -154 0
-152 442 -153 0
-152 154 -155 0
153 -416 455 -549 0
-153 416 0
-153 -455 0
-153 549 0
154 427 455 0
-154 -427 0
-154 -455 0
155 -416 549 0
-155 416 0
-155 -549 0
156 -471 155 0
156 153 154 0
156 153 155 0
156 -471 154 0
-156 471 -153 0
-156 -154 -155 0
157 158 181 0
157 -453 24 158 0
-157 -158 0
-157 453 -181 0
-157 -24 -181 0
158 159 179 0
-158 -159 0
-158 -179 0
159 -160 -172 0
-159 160 0
-159 172 0
160 161 -162 0
160 161 165 171 0
-160 -161 0
-160 162 -171 0
-160 162 -165 0
161 442 -471 -153 0
161 -442 471 -153 0
-161 153 0
-161 442 471 0
-161 -442 -471 0
162 -145 -163 0
-162 145 0
-162 163 0
163 -137 164 0
-163 137 0
-163 -164 0
164 -529 -31 0
-164 529 0
-164 31 0
165 166 -169 0
165 -56 166 -167 0
-165 -166 0
-165 167 169 0
-165 56 169 0
166 -144 164 0
-166 144 0
-166 -164 0
167 136 168 0
-167 -136 0
-167 -168 0
168 -151 -163 0
-168 151 0
-168 163 0
169 460 -555 -170 0
169 -460 555 -170 0
-169 170 0
-169 460 555 0
-169 -460 -555 0
170 -24 -148 0
-170 24 0
-170 148 0
171 469 -494 -139 0
171 -469 494 -139 0
-171 139 0
-171 469 494 0
-171 -469 -494 0
172 -156 173 -175 0
172 -156 173 177 0
-172 156 0
-172 -173 0
-172 175 -177 0
173 -152 -162 0
173 -138 -152 174 0
-173 152 0
-173 162 -174 0
-173 138 162 0
174 -149 166 0
174 -119 166 -167 0
-174 -166 0
-174 149 167 0
-174 119 149 0
175 -143 -166 0
175 -143 146 176 0
-175 143 0
-175 -146 166 0
-175 166 -176 0
176 421 424 168 0
-176 -421 0
-176 -168 0
-176 -424 0
177 162 -178 0
177 162 -168 0
177 162 -166 0
-177 -162 0
-177 166 168 178 0
178 57 136 0
178 -424 136 0
178 423 136 0
-178 -136 0
-178 -423 424 -57 0
179 136 -180 0
-179 -136 0
-179 180 0
180 -160 -173 0
-180 160 0
-180 173 0
181 476 524 0
181 -416 524 0
181 416 -417 476 0
-181 -416 -524 0
-181 416 -476 0
-181 417 -524 0
182 433 -183 0
-182 -433 0
-182 183 0
183 416 455 -549 -179 0
-183 -416 0
-183 179 0
-183 549 0
-183 -455 0
184 442 -471 -182 0
184 442 -471 185 0
-184 -442 0
-184 471 0
-184 -185 182 0
185 -161 -134 0
185 -134 -183 0
-185 134 0
-185 161 183 0
186 -455 -549 188 0
186 -549 -187 188 0
-186 549 0
-186 -188 0
-186 455 187 0
187 -416 -134 0
-187 416 0
-187 134 0
188 -159 179 -187 0
188 179 -187 -189 0
-188 187 0
-188 -179 0
-188 159 189 0
189 455 -549 -190 0
-189 190 0
-189 549 0
-189 -455 0
190 191 192 0
-190 -191 0
-190 -192 0
191 172 180 0
-191 -172 0
-191 -180 0
192 160 -172 0
-192 -160 0
-192 172 0
193 528 -194 223 -228 0
193 -528 -194 223 228 0
-193 -223 0
-193 -528 -228 0
-193 194 0
-193 528 228 0
194 525 -195 -204 -219 0
194 -525 195 -204 -219 0
-194 219 0
-194 525 195 0
-194 204 0
-194 -525 -195 0
195 110 -196 0
195 110 199 0
195 110 -197 0
-195 -110 0
-195 196 197 -199 0
196 416 -127 0
-196 -416 0
-196 127 0
197 416 -198 0
-197 -416 0
-197 198 0
198 22 -88 0
-198 -22 0
-198 88 0
199 26 200 0
-199 -26 0
-199 -200 0
200 477 -201 0
200 201 203 0
-200 -477 -201 0
-200 201 -203 0
201 467 480 -74 -202 0
-201 -467 0
-201 202 0
-201 74 0
-201 -480 0
202 495 531 547 0
-202 -495 0
-202 -547 0
-202 -531 0
203 -537 74 0
203 -525 -74 0
-203 537 74 0
-203 525 -74 0
204 -451 551 -205 -208 0
204 -451 -551 205 -208 0
204 451 551 -205 208 0
204 451 -551 205 208 0
-204 -551 -205 0
-204 551 205 0
-204 451 -208 0
-204 -451 208 0
205 206 207 0
-205 -206 0
-205 -207 0
206 416 -72 0
-206 -416 0
-206 72 0
207 -416 -124 0
-207 416 0
-207 124 0
208 209 214 0
208 24 209 210 0
-208 -209 0
-208 -24 -214 0
-208 -210 -214 0
209 21 124 0
-209 -21 0
-209 -124 0
210 557 -211 0
210 211 213 0
-210 -557 -211 0
-210 211 -213 0
211 447 490 -40 -212 0
-211 -447 0
-211 212 0
-211 40 0
-211 -490 0
212 502 543 560 0
-212 -502 0
-212 -560 0
-212 -543 0
213 -552 -40 0
213 -497 40 0
-213 497 40 0
-213 552 -40 0
214 -416 -215 0
214 -200 -215 0
214 416 -417 -200 0
-214 -416 215 0
-214 416 200 0
-214 417 215 0
215 440 -216 0
215 216 218 0
-215 -440 -216 0
-215 216 -218 0
216 444 446 -13 -217 0
-216 -444 0
-216 217 0
-216 13 0
-216 -446 0
217 457 499 511 0
-217 -457 0
-217 -511 0
-217 -499 0
218 -559 -13 0
218 -508 13 0
-218 508 13 0
-218 559 -13 0
219 507 527 208 -220 0
219 507 -527 -208 -220 0
219 -507 -527 -208 220 0
219 -507 527 208 220 0
-219 -507 -220 0
-219 507 220 0
-219 -527 208 0
-219 527 -208 0
220 221 222 0
-220 -221 0
-220 -222 0
221 24 -38 0
-221 -24 0
-221 38 0
222 -24 -124 0
-222 24 0
-222 124 0
223 438 -224 0
223 -438 224 0
-223 -438 -224 0
-223 438 224 0
224 -225 227 0
224 71 -80 227 0
-224 -227 0
-224 -71 225 0
-224 80 225 0
225 433 -226 0
-225 -433 0
-225 226 0
226 -21 -206 0
-226 21 0
-226 206 0
227 -433 -226 0
227 71 -86 226 0
-227 86 226 0
-227 433 -226 0
-227 -71 226 0
228 10 230 0
228 -129 229 230 0
-228 -230 0
-228 -10 129 0
-228 -10 -229 0
229 -32 -104 0
-229 32 0
-229 104 0
230 434 11 124 -231 0
-230 231 0
-230 -124 0
-230 -434 0
-230 -11 0
231 10 -104 0
-231 -10 0
-231 104 0
232 -559 233 237 -244 0
232 559 -233 237 -244 0
-232 244 0
-232 559 233 0
-232 -237 0
-232 -559 -233 0
233 103 -234 0
233 103 235 0
-233 -103 0
-233 234 -235 0
234 10 -127 0
-234 -10 0
-234 127 0
235 26 215 236 0
-235 -26 0
-235 -236 0
-235 -215 0
236 10 -198 0
-236 -10 0
-236 198 0
237 455 -238 0
237 -455 -134 238 0
237 -455 -549 238 0
-237 -455 -238 0
-237 455 238 0
-237 -455 549 134 0
238 -134 -242 0
238 -416 -134 239 0
-238 134 0
-238 -239 242 0
-238 416 242 0
239 179 240 0
239 179 -241 0
-239 -179 0
-239 -240 241 0
240 159 191 0
-240 -159 0
-240 -191 0
241 -455 -549 0
241 455 192 0
-241 -455 549 0
-241 455 -192 0
242 416 436 159 -243 0
-242 243 0
-242 -159 0
-242 -416 0
-242 -436 0
243 -455 549 0
-243 455 0
-243 -549 0
244 552 -245 249 0
244 -552 245 249 0
-244 -249 0
-244 552 245 0
-244 -552 -245 0
245 94 -246 0
245 94 248 0
245 94 -247 0
-245 -94 0
-245 246 247 -248 0
246 24 -198 0
-246 -24 0
-246 198 0
247 24 -127 0
-247 -24 0
-247 127 0
248 26 210 0
-248 -26 0
-248 -210 0
249 484 -250 0
249 -484 -134 250 0
249 -484 -506 250 0
-249 -484 -250 0
-249 484 250 0
-249 -484 506 134 0
250 -251 -255 0
-250 251 0
-250 255 0
251 -134 252 253 0
251 -134 252 -254 0
-251 134 0
-251 -252 0
-251 -253 254 0
252 10 -140 0
-252 -10 0
-252 140 0
253 -10 179 0
-253 10 0
-253 -179 0
254 159 190 0
254 140 159 0
-254 -159 0
-254 -140 -190 0
255 -10 -179 0
255 10 -257 0
255 -10 -256 0
-255 10 257 0
-255 -10 179 256 0
256 -484 506 -240 0
256 484 -192 -240 0
-256 240 0
-256 484 192 0
-256 -484 -506 0
257 434 -484 506 159 0
-257 484 0
-257 -159 0
-257 -434 0
-257 -506 0
258 -548 -259 263 0
258 548 259 263 0
-258 -263 0
-258 -548 259 0
-258 548 -259 0
259 -260 262 0
259 37 -47 262 0
-259 -262 0
-259 -37 260 0
-259 47 260 0
260 428 -261 0
-260 -428 0
-260 261 0
261 -21 -221 0
-261 21 0
-261 221 0
262 -428 -261 0
262 37 -53 261 0
-262 53 261 0
-262 428 -261 0
-262 -37 261 0
263 -442 265 0
263 -134 -264 265 0
-263 -265 0
-263 442 264 0
-263 442 134 0
264 -433 -183 0
-264 433 0
-264 183 0
265 -442 471 185 0
265 -442 471 -264 0
-265 442 0
-265 -471 0
-265 -185 264 0
266 -506 267 -270 0
266 506 267 270 0
-266 -267 0
-266 -506 270 0
-266 506 -270 0
267 453 -24 -268 0
267 -453 24 -269 0
-267 24 269 0
-267 -453 -24 0
-267 -24 268 0
-267 453 24 0
268 158 -134 0
-268 -158 0
-268 134 0
269 -164 -134 0
269 160 -134 0
-269 134 0
-269 164 -160 0
270 -140 251 0
270 -134 251 0
-270 -251 0
-270 140 134 0
271 272 278 -281 -286 0
-271 -272 0
-271 286 0
-271 281 0
-271 -278 0
272 -469 -494 0
272 494 -273 0
272 -494 -276 0
-272 494 273 0
-272 469 -494 276 0
273 -435 -274 0
-273 435 0
-273 274 0
274 -134 -275 0
-274 134 0
-274 275 0
275 -179 -252 0
-275 179 0
-275 252 0
276 435 -134 -275 0
276 -134 275 -277 0
-276 134 0
-276 275 277 0
-276 -435 -275 0
277 -10 160 -173 0
-277 10 0
-277 -160 0
-277 173 0
278 -469 -494 0
278 469 -279 0
278 -469 -280 0
-278 469 279 0
-278 -469 494 280 0
279 435 -274 0
-279 -435 0
-279 274 0
280 -435 -134 -275 0
280 -171 -134 275 0
-280 134 0
-280 435 -275 0
-280 171 275 0
281 -496 -262 282 0
281 496 262 282 0
281 496 -536 262 0
281 -496 -536 -262 0
-281 -496 262 0
-281 496 -262 0
-281 536 -282 0
282 -148 283 0
282 -134 283 0
-282 -283 0
-282 148 134 0
283 150 -134 284 0
283 -134 284 -285 0
-283 134 0
-283 -284 0
-283 -150 285 0
284 24 -148 0
-284 -24 0
-284 148 0
285 159 190 0
285 148 159 0
-285 -159 0
-285 -148 -190 0
286 -463 479 291 0
286 -479 287 -291 0
286 -463 -479 -291 0
286 479 287 291 0
-286 479 -291 0
-286 -479 291 0
-286 463 -287 0
287 -288 290 0
287 59 -67 290 0
-287 -290 0
-287 -59 288 0
-287 67 288 0
288 435 -289 0
-288 -435 0
-288 289 0
289 -9 -21 0
-289 9 0
-289 21 0
290 -435 -289 0
290 59 -60 289 0
-290 60 289 0
-290 435 -289 0
-290 -59 289 0
291 26 209 0
291 -27 26 0
-291 -26 0
-291 27 -209 0
292 -293 -315 -321 -323 0
-292 323 0
-292 293 0
-292 321 0
-292 315 0
293 -294 -298 -299 -303 0
-293 303 0
-293 294 0
-293 299 0
-293 298 0
294 208 295 -296 0
294 -539 295 -296 0
-294 296 0
-294 -295 0
-294 539 -208 0
295 531 -207 0
295 -531 207 0
-295 -531 -207 0
-295 531 207 0
296 547 197 -297 0
296 -547 -197 -297 0
296 522 -547 -197 0
296 522 547 197 0
-296 -547 197 0
-296 547 -197 0
-296 -522 297 0
297 -206 209 0
297 209 -221 0
297 -9 209 0
-297 -209 0
-297 9 206 221 0
298 439 490 246 0
298 -490 -208 -246 0
298 439 -490 -246 0
298 490 -208 246 0
-298 490 -246 0
-298 -490 246 0
-298 -439 208 0
299 -468 209 300 0
299 468 -209 300 0
299 -468 134 209 0
299 468 134 -209 0
-299 -468 -209 0
-299 468 209 0
-299 -134 -300 0
300 -164 -158 0
300 -164 -301 0
300 529 158 -301 0
-300 158 301 0
-300 164 -158 0
-300 -529 164 0
301 -416 252 284 0
301 302 252 284 0
-301 -284 0
-301 -252 0
-301 416 -302 0
302 455 -549 0
-302 -455 0
-302 549 0
303 554 304 -305 -306 0
303 -554 -304 -305 -306 0
-303 306 0
-303 -554 304 0
-303 305 0
-303 554 -304 0
304 -124 -132 0
-304 124 0
-304 132 0
305 538 289 297 0
305 -538 -289 297 0
305 -522 538 289 0
305 -522 -538 -289 0
-305 -538 289 0
-305 538 -289 0
-305 522 -297 0
306 495 196 -307 310 0
306 -495 -196 -307 310 0
-306 -310 0
-306 -495 196 0
-306 307 0
-306 495 -196 0
307 -446 478 -234 308 0
307 446 -478 234 -308 0
307 446 478 234 308 0
307 -446 -478 -234 -308 0
-307 -446 234 0
-307 446 -234 0
-307 478 -308 0
-307 -478 308 0
308 -124 -309 0
-308 124 0
-308 309 0
309 24 -95 0
-309 -24 0
-309 95 0
310 -134 312 0
310 -555 -134 311 0
-310 134 0
-310 555 -312 0
-310 -311 -312 0
311 148 0
311 -428 24 0
311 24 179 0
-311 -24 -148 0
-311 428 -148 -179 0
312 460 313 0
312 170 313 0
-312 -313 0
-312 -460 -170 0
313 460 555 -314 0
313 -428 555 -314 0
-313 314 0
-313 -555 0
-313 428 -460 0
314 -179 -284 0
-314 179 0
-314 284 0
315 502 222 -316 -320 0
315 -502 -222 -316 -320 0
-315 320 0
-315 -502 222 0
-315 316 0
-315 502 -222 0
316 487 124 317 -318 0
316 -487 -124 317 -318 0
-316 -317 0
-316 487 -124 0
-316 318 0
-316 -487 124 0
317 -492 21 0
317 481 -21 0
317 -481 492 0
-317 -481 -492 -21 0
-317 481 492 21 0
318 517 520 319 0
318 -517 -198 319 0
-318 -319 0
-318 517 -520 0
-318 -517 198 0
319 530 -127 0
319 -530 127 0
-319 -530 -127 0
-319 530 127 0
320 556 21 247 0
320 -556 -21 247 0
320 -543 556 21 0
320 -543 -556 -21 0
-320 -556 21 0
-320 556 -21 0
-320 543 -247 0
321 -181 -322 0
321 268 269 0
321 269 -322 0
321 -181 268 0
-321 -268 322 0
-321 181 -269 0
322 416 -524 0
322 -416 -476 0
322 416 417 0
-322 -416 476 0
-322 416 -417 524 0
323 -324 -327 -330 -335 0
-323 335 0
-323 324 0
-323 330 0
-323 327 0
324 512 226 -325 326 0
324 -512 -226 -325 326 0
-324 -326 0
-324 -512 226 0
-324 325 0
-324 512 -226 0
325 -499 511 123 -236 0
325 -499 -511 -123 -236 0
325 499 511 123 236 0
325 499 -511 -123 236 0
-325 499 -236 0
-325 -499 236 0
-325 -511 123 0
-325 511 -123 0
326 503 -261 0
326 -503 261 0
-326 -503 -261 0
-326 503 261 0
327 -462 -328 -329 0
327 462 328 -329 0
-327 329 0
-327 -462 328 0
-327 462 -328 0
328 -124 -231 0
-328 124 0
-328 231 0
329 -449 543 -198 0
329 449 543 198 0
329 449 198 -247 0
329 -449 -198 -247 0
-329 -449 198 0
-329 449 -198 0
-329 -543 247 0
330 -127 -331 333 0
330 461 -331 333 0
-330 331 0
-330 -333 0
-330 -461 127 0
331 -124 332 0
331 532 558 332 0
-331 -332 0
-331 -558 124 0
-331 -532 124 0
332 520 -198 0
-332 -520 0
-332 198 0
333 466 -541 0
333 -466 334 0
-333 -466 -334 0
-333 466 541 0
334 89 114 0
-334 -89 0
-334 -114 0
335 -509 -336 404 0
335 127 -336 404 0
-335 336 0
-335 -404 0
-335 509 -127 0
336 504 334 -337 0
336 -504 -541 -334 -337 0
-336 -504 541 0
-336 504 -334 0
-336 337 0
-336 -504 334 0
337 -338 -339 -351 -353 0
-337 353 0
-337 338 0
-337 351 0
-337 339 0
338 -486 553 66 0
338 -553 58 -66 0
338 -486 -553 -66 0
338 553 58 66 0
-338 553 -66 0
-338 -553 66 0
-338 486 -58 0
339 523 70 -340 -341 0
339 -523 -70 -340 -341 0
-339 341 0
-339 -523 70 0
-339 340 0
-339 523 -70 0
340 486 534 0
340 -52 -58 0
340 534 -58 0
340 486 -52 0
-340 -534 52 0
-340 -486 58 0
341 -534 -342 -348 0
341 52 -342 -348 0
-341 348 0
-341 342 0
-341 534 -52 0
342 -343 -345 -346 -347 0
-342 347 0
-342 343 0
-342 346 0
-342 345 0
343 95 344 0
343 -443 -544 344 0
-343 -344 0
-343 544 -95 0
-343 443 -95 0
344 -474 111 0
-344 474 0
-344 -111 0
345 -540 -11 0
345 475 104 0
345 475 -540 0
345 -11 104 0
-345 -475 11 0
-345 540 -104 0
346 491 516 0
346 -95 -104 0
346 516 -104 0
346 491 -95 0
-346 -516 95 0
-346 -491 104 0
347 -474 11 0
347 -550 111 0
347 -474 -550 0
347 11 111 0
-347 474 -111 0
-347 550 -11 0
348 519 349 -350 0
348 -38 349 -350 0
-348 350 0
-348 -349 0
-348 -519 38 0
349 -443 95 0
349 -544 95 0
-349 -95 0
-349 443 544 0
350 -535 11 0
350 -475 72 0
350 -475 -535 0
350 11 72 0
-350 535 -72 0
-350 475 -11 0
351 -459 -85 -352 0
351 459 85 -352 0
-351 352 0
-351 -459 85 0
-351 459 -85 0
352 -447 -108 0
352 467 92 0
352 92 -108 0
352 -447 467 0
-352 -467 108 0
-352 447 -92 0
353 457 101 -354 -355 0
353 -457 -101 -354 -355 0
-353 355 0
-353 -457 101 0
-353 354 0
-353 457 -101 0
354 -467 -92 0
354 447 108 0
354 447 -467 0
354 -92 108 0
-354 -447 92 0
-354 467 -108 0
355 473 36 -356 -400 0
355 -473 -36 -356 -400 0
-355 400 0
-355 -473 36 0
-355 356 0
-355 473 -36 0
356 -357 -382 -389 -391 0
-356 391 0
-356 357 0
-356 389 0
-356 382 0
357 -358 -361 -364 -378 0
-357 378 0
-357 358 0
-357 364 0
-357 361 0
358 445 359 -360 0
358 -80 359 -360 0
-358 360 0
-358 -359 0
-358 -445 80 0
359 -518 26 0
359 -560 26 0
-359 -26 0
-359 518 560 0
360 -448 533 0
360 -47 67 0
360 533 67 0
360 -448 -47 0
-360 -533 47 0
-360 448 -67 0
361 -497 -362 363 0
361 -210 -362 363 0
-361 362 0
-361 -363 0
-361 497 210 0
362 -545 210 0
362 557 49 0
362 49 210 0
362 -545 557 0
-362 -557 -210 0
-362 545 -49 0
363 508 215 0
-363 -508 0
-363 -215 0
364 497 -365 -370 0
364 210 -365 -370 0
-364 370 0
-364 365 0
-364 -497 -210 0
365 -440 -367 0
365 366 -367 0
-365 367 0
-365 440 -366 0
366 -508 13 216 0
366 -559 -13 216 0
-366 -216 0
-366 508 13 0
-366 559 -13 0
367 -557 368 0
367 -477 369 0
367 -477 -557 0
367 368 369 0
-367 557 -369 0
-367 477 -368 0
368 -525 -74 201 0
368 -537 74 201 0
-368 -201 0
-368 537 74 0
-368 525 -74 0
369 -497 40 211 0
369 -552 -40 211 0
-369 -211 0
-369 497 40 0
-369 552 -40 0
370 416 546 -371 -373 0
370 -416 -546 -371 -373 0
-370 373 0
-370 -416 546 0
-370 371 0
-370 416 -546 0
371 452 472 514 -372 0
-371 372 0
-371 -514 0
-371 -452 0
-371 -472 0
372 -483 540 0
372 488 -513 0
372 488 540 0
372 -483 -513 0
-372 483 -488 0
-372 513 -540 0
373 456 10 -374 -377 0
373 -456 -10 -374 -377 0
-373 377 0
-373 -456 10 0
-373 374 0
-373 456 -10 0
374 545 375 -376 0
374 -533 375 -376 0
-374 376 0
-374 -375 0
-374 533 -545 0
375 -460 -555 0
-375 460 0
-375 555 0
376 -439 509 0
376 -461 539 0
376 -439 -461 0
376 509 539 0
-376 439 -539 0
-376 461 -509 0
377 -500 -24 0
377 500 24 0
-377 500 -24 0
-377 -500 24 0
378 515 -379 -381 0
378 -60 -379 -381 0
-378 381 0
-378 379 0
-378 -515 60 0
379 215 380 0
379 440 508 380 0
-379 -380 0
-379 -508 -215 0
-379 -440 -215 0
380 -477 -200 0
-380 477 0
-380 200 0
381 -445 68 0
381 -458 82 0
381 -445 -458 0
381 68 82 0
-381 445 -82 0
-381 458 -68 0
382 480 26 -383 -385 0
382 -480 -26 -383 -385 0
-382 385 0
-382 -480 26 0
-382 383 0
-382 480 -26 0
383 -519 384 0
383 510 44 384 0
-383 -384 0
-383 -510 519 0
-383 519 -44 0
384 -483 53 0
-384 483 0
-384 -53 0
385 550 386 -387 0
385 -17 386 -387 0
-385 387 0
-385 -386 0
-385 -550 17 0
386 560 -26 0
386 518 -26 0
-386 26 0
-386 -518 -560 0
387 -67 388 0
387 448 458 388 0
-387 -388 0
-387 -458 67 0
-387 -448 67 0
388 521 -60 0
388 515 -60 0
-388 60 0
-388 -515 -521 0
389 -501 -111 390 0
389 482 501 111 390 0
-389 -501 111 0
-389 501 -111 0
-389 -390 0
-389 -482 501 0
390 516 -95 0
-390 -516 0
-390 95 0
391 513 -392 -398 0
391 -104 -392 -398 0
-391 398 0
-391 392 0
-391 -513 104 0
392 -393 -394 -396 -397 0
-392 397 0
-392 393 0
-392 396 0
-392 394 0
393 -482 -537 200 0
393 -482 537 -200 0
393 537 112 -200 0
393 -537 112 200 0
-393 537 200 0
-393 -537 -200 0
-393 482 -112 0
394 86 395 0
394 -493 -498 395 0
-394 -395 0
-394 498 -86 0
-394 493 -86 0
395 -489 27 0
-395 489 0
-395 -27 0
396 -491 44 0
396 -510 105 0
396 -491 -510 0
396 44 105 0
-396 491 -105 0
-396 510 -44 0
397 -488 -62 0
397 521 54 0
397 54 -62 0
397 -488 521 0
-397 -521 62 0
-397 488 -54 0
398 -86 -399 0
398 493 498 -399 0
-398 399 0
-398 -498 86 0
-398 -493 86 0
399 542 29 0
399 -489 -542 -29 0
399 -489 28 29 0
-399 489 -542 0
-399 542 -29 0
-399 -542 -28 29 0
400 465 535 -401 0
400 -465 -72 -401 0
-400 401 0
-400 465 -535 0
-400 -465 72 0
401 470 -402 -403 0
401 -470 402 -403 0
-401 403 0
-401 470 402 0
-401 -470 -402 0
402 -32 -135 0
402 27 -135 0
-402 135 0
-402 -27 32 0
403 -444 450 -26 80 0
403 444 -450 26 -80 0
403 444 450 26 80 0
403 -444 -450 -26 -80 0
-403 -444 26 0
-403 444 -26 0
-403 450 -80 0
-403 -450 80 0
404 558 -124 0
404 532 -124 0
-404 124 0
-404 -532 -558 0
405 -406 -409 -414 -415 0
-405 415 0
-405 406 0
-405 414 0
-405 409 0
406 -454 536 407 0
406 454 -282 -407 0
406 454 536 -407 0
406 -454 -282 407 0
-406 -454 -407 0
-406 454 407 0
-406 -536 282 0
407 -129 408 0
407 24 408 0
-407 -408 0
-407 -24 129 0
408 437 38 124 -309 0
-408 309 0
-408 -124 0
-408 -437 0
-408 -38 0
409 -441 -410 0
409 441 410 0
409 -441 536 134 0
-409 441 -410 0
-409 -441 -134 410 0
-409 -441 -536 410 0
410 -283 411 -413 0
410 -24 -283 411 0
-410 283 0
-410 -411 0
-410 24 413 0
411 -150 -412 0
411 -150 240 0
-411 150 0
-411 -240 412 0
412 -441 -536 0
412 441 192 0
-412 -441 536 0
-412 441 -192 0
413 437 -441 536 159 0
-413 441 0
-413 -159 0
-413 -437 0
-413 -536 0
414 -505 526 -227 290 0
414 505 -526 227 -290 0
414 505 526 227 290 0
414 -505 -526 -227 -290 0
-414 -505 227 0
-414 505 -227 0
-414 526 -290 0
-414 -526 290 0
415 463 188 0
415 -549 -287 0
415 463 -549 0
415 188 -287 0
-415 -463 287 0
-415 549 -188 0
684 0
2 4 0
-2 -4 0
3 4 0
-3 -4 0
3 0

